500
75 75
1 60 757
2 60 413
3 60 204
4 60 404
5 60 539
6 60 81
7 60 115
8 60 879
9 60 603
10 60 1000
11 60 171
12 59 155
13 59 144
14 59 650
15 59 643
16 59 986
17 59 235
18 59 79
19 59 129
20 59 893
21 59 946
22 59 61
23 58 678
24 58 250
25 58 136
26 58 879
27 58 827
28 58 922
29 58 155
30 58 245
31 58 963
32 57 303
33 57 658
34 57 868
35 57 190
36 57 981
37 57 552
38 57 343
39 57 748
40 56 420
41 56 668
42 56 860
43 56 321
44 56 815
45 56 529
46 56 551
47 56 225
48 55 243
49 55 284
50 55 224
51 55 384
52 55 873
53 55 809
54 55 147
55 55 305
56 55 655
57 55 603
58 55 545
59 55 558
60 54 490
61 54 975
62 54 36
63 54 622
64 54 945
65 54 990
66 54 792
67 54 640
68 54 834
69 54 545
70 53 316
71 53 615
72 53 293
73 53 133
74 53 351
75 53 55
76 52 629
77 52 827
78 52 643
79 52 608
80 52 310
81 52 878
82 52 130
83 52 544
84 52 203
85 52 383
86 51 693
87 51 701
88 51 837
89 51 127
90 51 826
91 51 718
92 51 72
93 50 381
94 50 961
95 50 284
96 50 883
97 50 850
98 50 700
99 50 458
100 50 146
101 50 120
102 50 808
103 50 20
104 50 658
105 49 203
106 49 372
107 49 104
108 49 908
109 49 177
110 49 30
111 49 731
112 49 144
113 49 298
114 49 899
115 49 652
116 49 663
117 49 992
118 49 54
119 48 259
120 48 233
121 48 16
122 48 186
123 48 567
124 48 547
125 48 306
126 48 931
127 48 308
128 48 781
129 48 616
130 48 347
131 47 959
132 47 608
133 47 333
134 47 110
135 47 821
136 47 425
137 47 884
138 47 619
139 47 366
140 47 173
141 47 373
142 47 69
143 46 992
144 46 80
145 46 780
146 46 922
147 46 119
148 46 905
149 46 628
150 46 116
151 46 775
152 46 393
153 46 327
154 45 474
155 45 238
156 45 612
157 45 4
158 45 340
159 45 629
160 45 766
161 44 678
162 44 656
163 44 924
164 44 504
165 44 583
166 44 775
167 44 62
168 44 266
169 44 741
170 43 174
171 43 315
172 43 902
173 43 977
174 43 782
175 43 601
176 43 188
177 43 449
178 43 260
179 43 963
180 43 502
181 43 839
182 42 585
183 42 776
184 42 371
185 42 97
186 42 14
187 42 159
188 42 228
189 42 352
190 42 303
191 42 725
192 42 881
193 42 676
194 42 598
195 41 119
196 41 808
197 41 169
198 41 595
199 41 454
200 41 127
201 41 323
202 41 999
203 41 377
204 41 800
205 41 729
206 41 226
207 41 193
208 40 206
209 40 148
210 40 219
211 40 41
212 40 267
213 40 927
214 40 530
215 40 482
216 40 762
217 40 933
218 40 158
219 40 763
220 39 656
221 39 50
222 39 435
223 39 8
224 39 358
225 39 887
226 39 538
227 39 390
228 39 476
229 39 409
230 39 346
231 39 844
232 39 160
233 38 148
234 38 251
235 38 412
236 38 79
237 38 381
238 38 157
239 38 384
240 38 491
241 37 455
242 37 902
243 37 492
244 37 881
245 37 507
246 37 86
247 37 832
248 37 728
249 37 324
250 37 619
251 37 267
252 37 184
253 36 4
254 36 743
255 36 790
256 36 692
257 36 601
258 36 892
259 36 518
260 36 451
261 36 9
262 36 225
263 36 107
264 36 740
265 36 739
266 35 953
267 35 991
268 35 440
269 35 67
270 35 354
271 35 232
272 35 126
273 35 892
274 35 690
275 35 861
276 35 153
277 35 1000
278 34 572
279 34 564
280 34 55
281 34 791
282 34 277
283 34 777
284 34 373
285 34 989
286 34 1000
287 34 845
288 34 113
289 34 524
290 34 287
291 34 644
292 33 197
293 33 402
294 33 458
295 33 485
296 33 630
297 33 91
298 33 457
299 33 573
300 33 601
301 32 416
302 32 145
303 32 800
304 32 898
305 32 134
306 32 39
307 32 278
308 32 678
309 32 509
310 32 395
311 32 158
312 32 978
313 32 929
314 32 915
315 31 963
316 31 979
317 31 197
318 31 360
319 31 46
320 31 805
321 31 600
322 31 531
323 31 401
324 31 18
325 30 588
326 30 57
327 30 19
328 30 787
329 30 435
330 30 151
331 30 107
332 30 353
333 30 665
334 30 662
335 30 473
336 30 591
337 30 493
338 29 493
339 29 571
340 29 603
341 29 301
342 29 200
343 29 172
344 29 484
345 29 954
346 29 250
347 29 264
348 29 36
349 28 486
350 28 927
351 28 710
352 28 427
353 28 773
354 28 511
355 28 378
356 28 576
357 28 804
358 28 699
359 28 560
360 28 869
361 28 481
362 28 659
363 28 233
364 28 995
365 28 731
366 28 819
367 28 718
368 27 639
369 27 944
370 27 762
371 27 222
372 27 712
373 27 641
374 27 61
375 27 904
376 27 848
377 27 646
378 26 247
379 26 602
380 26 296
381 26 838
382 26 112
383 26 599
384 26 94
385 26 592
386 25 404
387 25 201
388 25 633
389 25 585
390 25 360
391 25 449
392 25 282
393 25 946
394 25 945
395 25 899
396 24 891
397 24 637
398 24 435
399 24 130
400 24 138
401 24 6
402 24 461
403 24 601
404 24 183
405 24 690
406 23 319
407 23 358
408 23 226
409 23 330
410 23 158
411 23 537
412 23 496
413 23 986
414 23 601
415 23 523
416 23 281
417 23 939
418 22 298
419 22 50
420 22 598
421 22 822
422 22 175
423 22 89
424 22 920
425 22 1000
426 22 777
427 22 648
428 22 22
429 22 450
430 22 944
431 22 39
432 22 816
433 21 530
434 21 522
435 21 768
436 21 802
437 21 156
438 21 552
439 21 343
440 20 375
441 20 106
442 20 422
443 20 839
444 20 550
445 20 363
446 20 699
447 19 284
448 19 439
449 19 684
450 19 713
451 19 470
452 19 175
453 19 251
454 19 696
455 19 167
456 19 680
457 19 1
458 19 802
459 19 789
460 19 371
461 19 135
462 18 347
463 18 281
464 18 827
465 18 626
466 18 329
467 18 294
468 18 793
469 18 80
470 17 359
471 17 503
472 17 306
473 17 649
474 17 358
475 17 799
476 16 805
477 16 627
478 16 446
479 16 508
480 16 824
481 16 388
482 16 469
483 16 186
484 16 408
485 16 393
486 16 589
487 16 978
488 16 956
489 15 669
490 15 273
491 15 887
492 15 128
493 15 159
494 15 888
495 15 287
496 15 498
497 15 178
498 15 816
499 15 959
500 15 917
